NAME: 3-(4-Aminophenyl)-3-cyclohexylpiperidine-2,6-dione
SCANNUMBER: -1
RETENTIONTIME: 0
PRECURSORMZ: 286
PRECURSORTYPE: [M]+.
IONMODE: Positive
SPECTRUMTYPE: Centroid
FORMULA: C17H22N2O2
INCHIKEY: 
INCHI: InChI=1S/C17H22N2O2/c18-14-8-6-13(7-9-14)17(12-4-2-1-3-5-12)11-10-15(20)19-16(17)21/h6-9,12H,1-5,10-11,18H2,(H,19,20,21)
SMILES: Nc1ccc(cc1)C2(CCC(=O)NC2=O)C3CCCCC3
AUTHORS: 
COLLISIONENERGY: 40
INSTRUMENT: 
INSTRUMENTTYPE: 
IONIZATION: 
LICENSE: 
COMMENT: 
Num Peaks: 72
27	14.99
29	15.99
39	34.97
41	93.92
42	14.99
51	14.99
52	10.99
53	23.98
54	34.97
55	128.88
63	9.99
65	39.96
66	16.98
67	33.97
77	55.95
78	19.98
79	29.97
81	12.99
82	25.98
83	17.98
89	18.98
90	12.99
91	53.95
92	17.98
93	58.95
94	48.96
102	10.99
103	30.97
104	43.96
105	27.97
106	77.93
107	17.98
115	77.93
116	27.97
117	117.89
118	180.84
119	63.94
120	26.98
127	15.99
128	18.98
129	11.99
130	155.86
131	77.93
132	326.71
133	82.93
134	17.98
135	14.99
143	41.96
144	45.96
145	18.98
146	16.98
147	29.97
148	25.98
156	20.98
157	16.98
158	25.98
159	56.95
160	24.98
161	22.98
162	84.92
163	56.95
174	11.99
175	386.65
176	101.91
177	9.99
186	17.98
202	17.98
203	999
204	803.28
205	97.91
286	168.85
287	32.97

NAME: 1-(5-Chloro-2-hydroxyphenyl)-3-(4-chlorophenyl)-2-propen-1-one
SCANNUMBER: -1
RETENTIONTIME: 0
PRECURSORMZ: 292
PRECURSORTYPE: [M]+.
IONMODE: Positive
SPECTRUMTYPE: Centroid
FORMULA: C15H10Cl2O2
INCHIKEY: 
INCHI: InChI=1S/C15H10Cl2O2/c16-11-4-1-10(2-5-11)3-7-14(18)13-9-12(17)6-8-15(13)19/h1-9,19H/b7-3+
SMILES: Oc1ccc(Cl)cc1C(=O)\C=C\c2ccc(Cl)cc2
AUTHORS: 
COLLISIONENERGY: 40
INSTRUMENT: 
INSTRUMENTTYPE: 
IONIZATION: 
LICENSE: 
COMMENT: 
Num Peaks: 73
38	10.99
39	25.98
50	56.95
51	88.92
52	15.99
53	26.98
61	19.98
62	69.94
63	320.71
64	21.98
72	10.99
73	35.97
74	50.95
75	128.88
76	40.96
77	150.86
78	13.99
82	12.99
85	10.99
86	10.99
87	13.99
89	44.96
90	11.99
91	22.98
97	22.98
98	131.88
99	62.94
100	48.96
101	136.88
102	150.86
103	276.75
104	23.98
110	11.99
111	32.97
112	38.96
113	14.99
114	16.98
125	63.94
126	404.64
127	66.94
128	133.88
129	16.98
136	16.98
137	67.94
138	578.48
139	91.92
140	187.83
141	20.98
152	13.99
154	999
155	133.88
156	320.71
157	42.96
163	10.99
165	67.94
166	15.99
167	12.99
176	9.99
180	54.95
181	204.82
182	37.97
183	66.94
194	9.99
257	54.95
259	17.98
275	27.97
277	17.98
291	153.86
292	260.76
293	135.88
294	165.85
295	41.96
296	29.97





NAME: 3-Benzoylbenzo[f]coumarin
SCANNUMBER: -1
RETENTIONTIME: 0
PRECURSORMZ: 300
PRECURSORTYPE: [M]+.
IONMODE: Positive
SPECTRUMTYPE: Centroid
FORMULA: C20H12O3
INCHIKEY: 
INCHI: InChI=1S/C20H12O3/c21-19(14-7-2-1-3-8-14)17-12-16-15-9-5-4-6-13(15)10-11-18(16)23-20(17)22/h1-12H
SMILES: O=C1Oc2ccc3ccccc3c2C=C1C(=O)c4ccccc4
AUTHORS: 
COLLISIONENERGY: 40
INSTRUMENT: 
INSTRUMENTTYPE: 
IONIZATION: 
LICENSE: 
COMMENT: 
Num Peaks: 62
39	18.98
50	44.96
51	202.82
52	12.99
62	26.98
63	80.93
65	15.99
74	28.97
75	32.97
76	32.97
77	986.11
78	67.94
86	32.97
87	47.96
88	23.98
89	62.94
94	13.99
98	12.99
99	12.99
105	999
106	76.93
107	9.99
110	10.99
111	13.99
112	11.99
113	68.94
114	11.99
122	14.99
126	9.99
137	54.95
138	69.94
139	764.31
140	89.92
150	68.94
151	24.98
157	17.98
187	10.99
189	10.99
195	198.82
196	27.97
213	32.97
215	53.95
216	13.99
223	199.82
224	32.97
226	10.99
228	15.99
243	23.98
244	90.92
245	15.99
254	11.99
255	49.95
256	24.98
271	407.63
272	228.79
273	38.96
282	20.98
283	34.97
299	108.9
300	684.38
301	147.87
302	18.98




