FORMULA: C13H9ClFeO4Si
COMMENT: SpectrumID: 1519953; Source: C4-1998-38-3; Class: Benzenoids; CASRN not real!
NAME: ((.eta.5-Cyclopentadienylironbiscarbonyl)(1,2-phenylenedioxysilyl)chloride complex
INCHI: InChI=1S/C6H4ClO2Si.C5H5.2CO.Fe/c7-10-8-5-3-1-2-4-6(5)9-10;1-2-4-5-3-1;2*1-2;/h1-4H;1-5H;;;
SMILES: Cl[Si]1Oc2ccccc2O1.[C-]#[O+].[C-]#[O+].[CH]1C=CC=C1.[Fe]
NUM PEAKS: 3
292.0       999.0
314.0       118.89
348.0       734.24

FORMULA: C13H14O
COMMENT: SpectrumID: 1752764; Source: A1-13-956/SMS7-13; DOI: 10.1021/ol1029996; QI: 383; Class: Benzene and substituted derivatives; CASRN not real! |RI:1588|
NAME: ((1R*,2R*)-1-Methyl-2-phenylethynylcyclopropyl)methanol
RETENTIONINDEX: 1588.0
INCHI: InChI=1S/C13H14O/c1-13(10-14)9-12(13)8-7-11-5-3-2-4-6-11/h2-6,12,14H,9-10H2,1H3/t12-,13-/m0/s1
SMILES: C[C@@]1(CO)C[C@@H]1C#Cc1ccccc1
NUM PEAKS: 20
51.0        89.92
63.0        89.92
77.0        179.84
88.0        39.96
89.0        59.95
91.0        49.95
102.0       149.86
113.0       49.95
115.0       229.79
127.0       139.87
128.0       999.0
129.0       199.82
144.0       99.91
155.0       119.89
156.0       14.89
157.0       1.1
158.0       0.1
186.0       39.96
187.0       5.89
188.0       0.5

FORMULA: C9H11N5O
CASNO: 2000176-75-9
ID: 48082
COMMENT: SpectrumID: 868007; Source: SK-27-3462-6; QI: 346; Class: Methoxyanilines; CASRN not real! |RI:2129|
COMPOUND_NAME: (5-amino-1H-1,2,4-triazol-3-yl)-(4-methoxyphenyl)amine
PARENT_MASS: 205.09636
RETENTION_INDEX: 2129.0
PUBCHEMID: 2747532
NOMINAL_MASS: 205
INCHI: InChI=1S/C9H11N5O/c1-15-7-4-2-6(3-5-7)11-9-12-8(10)13-14-9/h2-5H,1H3,(H4,10,11,12,13,14)
ISOMERIC_SMILES: COc1ccc(Nc2nc(=N)[nH][nH]2)cc1
NUM PEAKS: 25
44.0        379.66
81.0        179.84
95.0        119.89
99.0        229.79
107.0       189.83
121.0       99.91
122.0       139.87
134.0       119.89
148.0       89.92
149.0       319.71
163.0       89.92
174.0       79.93
175.0       7.79
176.0       0.5
179.0       59.95
180.0       6.39
181.0       0.4
190.0       79.93
191.0       8.79
192.0       0.6
204.0       109.9
205.0       999.0
206.0       169.85
207.0       8.59
208.0       0.5